111
1000000
154260
168140
82721
245546
227144
85469
25020
125237
9449
89263
80234
128650
125299
177949
50975
23919
106830
206311
101
143448
142730
107879
81182
236962
220872
139700
107589
205718
167612
207714
52629
140800
190123
196835
22767
173751
232012
208335
171120
52877
3165
249590
144468
246382
70264
144651
127299
224922
200638
164175
52813
162773
7884
66762
107819
148945
241109
43264
51948
152896
193289
43
136308
37752
219907
240613
20732
181236
114970
101998
239685
248462
157438
208543
234910
187351
198407
100033
120061
246238
133507
221680
99919
117436
44882
41149
183441
177498
56076
28870
58185
26
217238
237480
107425
185371
212519
167383
14438
231494
36858
71804
125282
102973
46017
137860
236230
112360
206587
221526
51571
